'hugeuniform114'
150 100 100
149
148
146
146
142
141
136
136
134
133
133
133
131
131
131
129
129
128
127
125
125
124
123
119
116
113
110
109
107
107
105
102
101
99
99
98
98
94
91
86
86
85
83
80
79
78
78
77
77
77
74
72
70
70
67
65
62
61
60
58
56
54
49
48
45
44
42
42
41
39
38
35
35
33
32
28
25
24
24
21
18
16
16
16
15
14
13
13
12
11
10
9
8
6
5
4
3
2
1
0
